NAME : swiss42-C-1-0-a.1273.tour
COMMENT : Length = 1273
COMMENT : Found by LKH-3 [Keld Helsgaun] Tue Jul 30 13:14:05 2024
TYPE : TOUR
DIMENSION : 42
TOUR_SECTION
1
2
7
5
4
28
3
29
30
31
39
23
40
22
25
41
24
42
10
9
11
26
12
13
19
27
6
14
20
15
17
16
38
8
18
32
37
36
21
34
35
33
-1
EOF
